2000	50	0,6	0,15	4,55958940	269
2000	50	0,6	0,15	4,47454310	269
2000	50	0,6	0,15	4,16682670	269
2000	50	0,6	0,15	5,10656570	269
2000	50	0,6	0,15	4,64915780	269
2000	50	0,6	0,15	4,98967870	269
2000	50	0,6	0,15	4,48853630	269
2000	50	0,6	0,15	4,11634920	269
2000	50	0,6	0,15	3,92195820	269
2000	50	0,6	0,15	3,83027490	269
